NAME: ../File/prFile/tspFile/tsp_file20.tsp
COMMENT: TSP file generated by Python
TYPE: TSP
DIMENSION: 30
EDGE_WEIGHT_TYPE: EUC_2D
NODE_COORD_SECTION
1 18 1
2 56 20
3 90 56
4 70 76
5 45 24
6 33 14
7 56 54
8 68 28
9 74 89
10 9 56
11 70 76
12 91 59
13 5 96
14 91 55
15 100 100
16 54 87
17 96 90
18 82 95
19 81 39
20 75 27
21 86 36
22 52 10
23 60 61
24 77 9
25 42 66
26 64 20
27 54 70
28 93 100
29 65 9
30 78 44
EOF
